70
997
24
8
87
66
26
14
89
84
3
52
43
11
38
64
70
38
77
49
61
61
37
76
36
67
79
0 3
0 6
0 9
0 10
0 11
0 15
0 16
0 18
0 19
0 28
0 30
0 36
0 39
0 40
0 41
0 47
0 48
0 49
0 50
0 53
0 54
0 57
0 59
0 60
0 61
0 63
0 65
0 68
1 4
1 5
1 6
1 12
1 13
1 15
1 17
1 18
1 24
1 30
1 33
1 34
1 37
1 38
1 39
1 41
1 42
1 45
1 47
1 50
1 52
1 53
1 54
1 57
1 60
1 61
1 65
1 66
1 69
2 3
2 9
2 10
2 11
2 12
2 14
2 16
2 17
2 18
2 19
2 22
2 26
2 39
2 43
2 46
2 53
2 54
2 56
2 59
2 68
3 4
3 6
3 7
3 8
3 9
3 13
3 14
3 15
3 16
3 18
3 19
3 21
3 22
3 23
3 24
3 26
3 30
3 32
3 35
3 36
3 39
3 41
3 45
3 49
3 54
3 55
3 57
3 58
3 65
3 66
3 67
3 69
4 5
4 6
4 8
4 13
4 15
4 17
4 18
4 22
4 25
4 29
4 30
4 31
4 34
4 39
4 47
4 48
4 49
4 51
4 53
4 54
4 56
4 57
4 59
4 60
4 62
4 63
4 66
4 68
5 6
5 7
5 8
5 14
5 19
5 20
5 23
5 24
5 25
5 26
5 28
5 33
5 35
5 40
5 43
5 45
5 49
5 50
5 52
5 53
5 55
5 59
5 60
5 61
5 63
5 64
5 67
5 68
5 69
6 11
6 13
6 20
6 21
6 25
6 31
6 32
6 33
6 34
6 36
6 38
6 40
6 41
6 43
6 52
6 54
6 55
6 59
6 61
6 63
6 65
6 67
6 68
7 8
7 10
7 11
7 13
7 15
7 16
7 21
7 22
7 23
7 29
7 30
7 31
7 32
7 33
7 35
7 36
7 42
7 46
7 48
7 51
7 55
7 56
7 57
7 59
7 61
7 62
7 66
8 10
8 15
8 16
8 18
8 24
8 26
8 27
8 30
8 31
8 32
8 33
8 34
8 36
8 45
8 47
8 49
8 51
8 52
8 53
8 56
8 60
8 62
8 66
8 67
9 12
9 13
9 16
9 18
9 19
9 20
9 21
9 25
9 31
9 32
9 34
9 35
9 36
9 37
9 39
9 40
9 43
9 44
9 45
9 51
9 52
9 56
9 57
9 59
9 62
9 66
9 67
10 11
10 12
10 14
10 15
10 16
10 17
10 22
10 26
10 28
10 29
10 38
10 39
10 40
10 43
10 44
10 46
10 49
10 55
10 56
10 57
10 59
10 61
10 62
10 64
10 66
11 14
11 16
11 22
11 23
11 24
11 26
11 27
11 28
11 36
11 38
11 39
11 40
11 41
11 43
11 45
11 54
11 58
11 59
11 60
11 61
11 64
12 20
12 23
12 25
12 26
12 33
12 34
12 35
12 38
12 45
12 46
12 47
12 50
12 52
12 53
12 54
12 57
12 60
12 61
12 64
12 67
13 14
13 16
13 17
13 20
13 23
13 24
13 26
13 28
13 30
13 34
13 39
13 42
13 43
13 44
13 47
13 48
13 50
13 51
13 53
13 57
13 59
13 60
13 65
13 66
13 67
13 69
14 18
14 19
14 21
14 23
14 25
14 28
14 30
14 31
14 34
14 39
14 43
14 46
14 48
14 49
14 51
14 54
14 57
14 58
14 59
14 67
14 69
15 16
15 20
15 23
15 24
15 25
15 31
15 32
15 35
15 36
15 38
15 39
15 40
15 44
15 46
15 47
15 50
15 52
15 55
15 58
15 59
15 60
15 64
15 65
15 67
15 68
15 69
16 18
16 19
16 22
16 26
16 27
16 30
16 31
16 32
16 34
16 36
16 38
16 39
16 40
16 45
16 46
16 47
16 53
16 56
16 59
16 60
16 68
17 19
17 20
17 21
17 23
17 27
17 30
17 32
17 33
17 35
17 38
17 39
17 40
17 41
17 43
17 44
17 47
17 48
17 50
17 51
17 53
17 54
17 58
17 61
17 65
17 66
18 20
18 21
18 22
18 23
18 25
18 34
18 35
18 37
18 38
18 42
18 44
18 45
18 46
18 47
18 49
18 51
18 53
18 56
18 62
18 63
18 65
18 66
18 68
19 21
19 23
19 27
19 30
19 31
19 32
19 34
19 35
19 36
19 38
19 39
19 46
19 47
19 48
19 51
19 53
19 54
19 55
19 57
19 59
19 60
19 62
19 63
19 67
19 68
20 21
20 22
20 24
20 25
20 27
20 30
20 33
20 35
20 36
20 37
20 39
20 41
20 42
20 43
20 54
20 59
20 60
20 62
20 64
20 66
20 67
21 22
21 24
21 27
21 29
21 31
21 34
21 37
21 38
21 40
21 44
21 46
21 47
21 48
21 49
21 51
21 57
21 58
21 61
21 67
21 69
22 23
22 24
22 26
22 27
22 28
22 32
22 37
22 38
22 41
22 46
22 47
22 52
22 54
22 55
22 56
22 58
22 61
22 63
22 65
22 67
22 68
23 24
23 25
23 28
23 29
23 30
23 32
23 33
23 34
23 40
23 41
23 44
23 46
23 50
23 52
23 53
23 56
23 57
23 59
23 60
23 63
23 67
23 68
23 69
24 29
24 30
24 33
24 37
24 38
24 39
24 41
24 42
24 43
24 45
24 48
24 49
24 51
24 54
24 59
24 61
24 62
24 63
24 66
24 67
24 68
24 69
25 28
25 36
25 37
25 38
25 41
25 42
25 43
25 44
25 45
25 46
25 48
25 49
25 51
25 54
25 55
25 57
25 60
25 61
25 63
25 65
25 66
25 67
25 69
26 31
26 34
26 36
26 38
26 43
26 44
26 49
26 51
26 54
26 57
26 58
26 62
26 65
26 67
26 68
26 69
27 31
27 32
27 33
27 35
27 36
27 39
27 41
27 46
27 48
27 51
27 52
27 53
27 58
27 59
27 60
27 61
27 62
27 65
27 68
28 38
28 39
28 40
28 42
28 45
28 49
28 50
28 53
28 56
28 57
28 67
28 68
29 33
29 35
29 36
29 37
29 38
29 44
29 52
29 60
29 61
29 62
29 67
29 69
30 33
30 34
30 37
30 39
30 41
30 42
30 44
30 49
30 54
30 55
30 59
30 60
30 61
30 62
30 63
30 64
30 66
31 33
31 41
31 44
31 47
31 50
31 55
31 56
31 57
31 60
31 61
31 62
31 63
31 65
31 66
31 69
32 34
32 35
32 42
32 44
32 45
32 48
32 49
32 50
32 52
32 55
32 57
32 60
32 61
32 68
32 69
33 34
33 35
33 36
33 38
33 41
33 43
33 50
33 53
33 57
33 58
34 35
34 36
34 37
34 41
34 42
34 43
34 45
34 46
34 48
34 50
34 51
34 54
34 56
34 58
34 59
34 60
35 42
35 43
35 45
35 49
35 52
35 57
35 59
35 60
35 61
35 62
35 64
36 39
36 42
36 46
36 49
36 50
36 54
36 59
36 60
36 61
36 62
36 66
36 69
37 40
37 42
37 43
37 45
37 48
37 49
37 51
37 54
37 57
37 60
37 61
37 65
37 67
38 40
38 41
38 44
38 46
38 48
38 54
38 57
38 59
38 65
38 67
38 68
38 69
39 40
39 44
39 45
39 51
39 54
39 56
39 58
39 59
39 65
39 66
39 67
39 68
39 69
40 43
40 44
40 56
40 57
40 58
40 59
40 60
40 64
40 67
40 68
40 69
41 42
41 50
41 52
41 53
41 57
41 64
41 65
41 68
42 44
42 45
42 52
42 54
42 58
42 59
42 61
42 63
42 64
42 69
43 44
43 46
43 48
43 49
43 53
43 56
43 59
43 63
43 66
43 69
44 46
44 50
44 52
44 55
44 56
44 59
44 62
44 63
44 64
44 66
44 68
45 48
45 49
45 50
45 51
45 52
45 53
45 55
45 59
45 60
45 62
45 63
45 67
45 69
46 51
46 53
46 54
46 55
46 59
46 63
46 64
46 66
47 48
47 49
47 52
47 54
47 55
47 58
47 60
47 62
47 63
47 66
47 67
47 68
48 51
48 54
48 59
48 61
48 64
48 65
48 67
49 51
49 52
49 53
49 55
49 56
49 59
49 63
49 64
49 68
50 52
50 60
50 63
50 65
50 67
50 68
50 69
51 53
51 54
51 55
51 57
51 60
51 62
51 63
51 64
51 67
52 54
52 60
52 63
52 65
52 66
52 67
52 68
52 69
53 57
53 58
53 62
53 64
53 65
53 66
53 69
54 58
54 59
54 60
54 63
54 68
55 58
55 59
55 62
55 64
55 67
55 69
56 57
56 58
56 59
56 62
56 63
56 64
56 66
56 69
57 59
57 60
57 62
57 67
58 61
58 63
58 64
58 66
59 62
59 64
59 67
59 68
60 67
60 68
61 66
61 68
61 69
62 63
62 65
62 66
62 69
63 65
65 67
66 67
68 69
4 11 10
66 15 38
41 23 19
44 59 21
52 3 54
2 63 35
24 42 43
30 16 27
47 14 5
34 51 7
40 25 8
53 18 48
60 12 50
46 58 68
33 56 31
29 1 28
62 17 13
0 45 37
22 6 65
61 39 64
67 69 32
36 9 20
26 49 57
55
